L=14; % número de trabalhadores disponíveis

no=3; % número de ordens

njo=[2,3,2]; % número de jobs por ordem
	     % os jobs de 1 a njo[1] estão na ordem 1. Para i > 2,
	     % os jobs de njo[i-1] + 1 a njo[i] estão na ordem.

djo=[4,2,2]; % duração dos jobs nas ordens

trab=[3,2,6,12,6,3,4,3]; % perfil de demanda de trabalhadores das ordens:
			 % as djo[1] primeiras posições descrevem o perfil de
			 % trabalhadores para jobs da ordem 1, as djo[2] posições
			 % seguintes o perfil da ordem 2 e assim por diante.

nprec=2; % número de precedências entre jobs de ordens diferentes

prec=[| 1, 3, | 3, 7 |]; % precedência entre jobs de ordens diferentes, uma por linha.
